c uprop, v00.0, 
c reading from data/prog536.c.cnf
c done reading: 0.002703
p cnf 139 533
-43 -61 0
-43 -57 0
43 57 61 0
-37 57 61 0
-37 -57 -61 0
37 57 -61 0
37 -57 61 0
43 -53 0
-52 -53 0
-43 52 53 0
-43 -48 52 0
43 -48 -52 0
43 48 52 0
-43 48 -52 0
-44 53 0
-41 -44 0
41 44 -53 0
-39 41 -53 0
-39 -41 53 0
39 41 53 0
39 -41 -53 0
-38 44 0
-36 -38 0
36 38 -44 0
36 -44 -59 0
-36 44 -59 0
36 44 59 0
-36 -44 59 0
38 -62 0
-55 -62 0
-38 55 62 0
-38 55 -63 0
38 -55 -63 0
38 55 63 0
-38 -55 63 0
62 -64 0
-50 -64 0
50 -62 64 0
50 -62 -65 0
-50 62 -65 0
50 62 65 0
-50 -62 65 0
64 -66 0
-46 -66 0
46 -64 66 0
46 -64 -67 0
-46 64 -67 0
46 64 67 0
-46 -64 67 0
41 -68 0
61 -68 0
-41 -61 68 0
-41 -61 -69 0
41 61 -69 0
-41 61 69 0
41 -61 69 0
-36 -57 70 0
-36 -68 70 0
-57 -68 70 0
36 57 -70 0
36 68 -70 0
57 68 -70 0
36 -70 -71 0
57 -70 -71 0
68 -70 -71 0
-36 70 71 0
-57 70 71 0
-68 70 71 0
-36 -57 -68 71 0
36 57 68 -71 0
-52 -55 72 0
-55 -70 72 0
-52 -70 72 0
52 55 -72 0
55 70 -72 0
52 70 -72 0
55 -72 -73 0
52 -72 -73 0
70 -72 -73 0
-55 72 73 0
-52 72 73 0
-70 72 73 0
-52 -55 -70 73 0
52 55 70 -73 0
-41 -50 74 0
-50 -72 74 0
-41 -72 74 0
41 50 -74 0
50 72 -74 0
41 72 -74 0
-34 50 -74 0
-34 41 -74 0
-34 72 -74 0
34 -50 74 0
34 -41 74 0
34 -72 74 0
34 -41 -50 -72 0
-34 41 50 72 0
33 -36 -46 0
33 -46 -74 0
33 -36 -74 0
-33 36 46 0
-33 46 74 0
-33 36 74 0
-32 -33 46 0
-32 -33 36 0
-32 -33 74 0
32 33 -46 0
32 33 -36 0
32 33 -74 0
32 -36 -46 -74 0
-32 36 46 74 0
-31 55 0
-31 33 0
31 -33 -55 0
-30 -33 -55 0
-30 33 55 0
30 33 -55 0
30 -33 55 0
-29 50 0
-29 31 0
29 -31 -50 0
-31 -50 -60 0
31 50 -60 0
31 -50 60 0
-31 50 60 0
46 -56 0
29 -56 0
-29 -46 56 0
-29 -46 -51 0
29 46 -51 0
29 -46 51 0
-29 46 51 0
-40 73 0
-40 61 0
40 -61 -73 0
-35 -61 -73 0
-35 61 73 0
35 61 -73 0
35 -61 73 0
-34 54 -57 0
-34 -40 54 0
-40 54 -57 0
34 -54 57 0
34 40 -54 0
40 -54 57 0
34 -49 -54 0
-49 -54 57 0
40 -49 -54 0
-34 49 54 0
49 54 -57 0
-40 49 54 0
-34 -40 49 -57 0
34 40 -49 57 0
-32 45 -52 0
-32 45 -54 0
45 -52 -54 0
32 -45 52 0
32 -45 54 0
-45 52 54 0
-28 32 -45 0
-28 -45 52 0
-28 -45 54 0
28 -32 45 0
28 45 -52 0
28 45 -54 0
28 -32 -52 -54 0
-28 32 52 54 0
27 -30 -41 0
27 -30 -45 0
27 -41 -45 0
-27 30 41 0
-27 30 45 0
-27 41 45 0
27 -30 0
27 -41 0
27 -45 0
-30 -41 -45 0
26 -36 -60 0
26 -27 -60 0
26 -27 -36 0
-26 36 60 0
-26 27 60 0
-26 27 36 0
26 -60 0
26 -36 0
26 -27 0
-27 -36 -60 0
25 -51 -55 0
25 -26 -51 0
25 -26 -55 0
-25 51 55 0
-25 26 51 0
-25 26 55 0
25 -51 0
25 -55 0
25 -26 0
-26 -51 -55 0
24 -50 -56 0
24 -25 -56 0
24 -25 -50 0
-24 50 56 0
-24 25 56 0
-24 25 50 0
24 -56 0
24 -50 0
24 -25 0
-25 -50 -56 0
-24 -46 0
24 -46 0
-24 46 0
-23 -61 0
-23 -57 0
23 57 61 0
-22 57 61 0
-22 -57 -61 0
22 57 -61 0
22 -57 61 0
-21 23 0
-21 -52 0
21 -23 52 0
-20 -23 52 0
-20 23 -52 0
20 23 52 0
20 -23 -52 0
-19 21 0
-19 -69 0
19 -21 69 0
-18 -21 69 0
-18 21 -69 0
18 21 69 0
18 -21 -69 0
-17 19 0
-17 -71 0
17 -19 71 0
-16 -19 71 0
-16 19 -71 0
16 19 71 0
16 -19 -71 0
-15 17 0
-15 -35 0
15 -17 35 0
-14 -17 35 0
-14 17 -35 0
14 17 35 0
14 -17 -35 0
-13 15 0
-13 -49 0
13 -15 49 0
-15 49 -75 0
15 -49 -75 0
15 49 75 0
-15 -49 75 0
13 -76 0
-28 -76 0
-13 28 76 0
-13 28 -77 0
13 -28 -77 0
13 28 77 0
-13 -28 77 0
76 -78 0
-76 78 0
-76 -79 0
76 79 0
78 -80 0
-78 80 0
-78 -81 0
78 81 0
80 -82 0
-80 82 0
-80 -83 0
80 83 0
82 -84 0
-82 84 0
-82 -85 0
82 85 0
84 -86 0
-84 86 0
-84 -87 0
84 87 0
86 -88 0
-86 88 0
-86 -89 0
86 89 0
-90 -92 0
-92 -93 0
90 92 93 0
90 93 -95 0
-90 -93 -95 0
-90 93 95 0
90 -93 95 0
92 -96 0
-96 -97 0
-92 96 97 0
-92 97 -99 0
92 -97 -99 0
92 97 99 0
-92 -97 99 0
96 -100 0
-100 -101 0
-96 100 101 0
-96 101 -103 0
96 -101 -103 0
96 101 103 0
-96 -101 103 0
100 -104 0
-104 -105 0
-100 104 105 0
-100 105 -107 0
100 -105 -107 0
100 105 107 0
-100 -105 107 0
104 -108 0
-108 -109 0
-104 108 109 0
-104 109 -111 0
104 -109 -111 0
104 109 111 0
-104 -109 111 0
108 -112 0
-112 -113 0
-108 112 113 0
-108 113 -115 0
108 -113 -115 0
108 113 115 0
-108 -113 115 0
112 -116 0
-116 -117 0
-112 116 117 0
-112 117 -119 0
112 -117 -119 0
112 117 119 0
-112 -117 119 0
109 -120 0
90 -120 0
-90 -109 120 0
-90 -109 -121 0
90 109 -121 0
90 -109 121 0
-90 109 121 0
-93 -113 122 0
-113 -120 122 0
-93 -120 122 0
93 113 -122 0
113 120 -122 0
93 120 -122 0
113 -122 -123 0
93 -122 -123 0
120 -122 -123 0
-113 122 123 0
-93 122 123 0
-120 122 123 0
-93 -113 -120 123 0
93 113 120 -123 0
-97 -117 124 0
-117 -122 124 0
-97 -122 124 0
97 117 -124 0
117 122 -124 0
97 122 -124 0
117 -124 -125 0
97 -124 -125 0
122 -124 -125 0
-117 124 125 0
-97 124 125 0
-122 124 125 0
-97 -117 -122 125 0
97 117 122 -125 0
101 -126 0
124 -126 0
-101 -124 126 0
-101 124 0
101 -124 0
105 -127 0
126 -127 0
-105 -126 127 0
-105 126 0
105 -126 0
-58 109 0
-58 127 0
58 -109 -127 0
-109 127 0
109 -127 0
-42 113 0
-42 58 0
42 -58 -113 0
58 -113 0
-58 113 0
-42 -117 0
42 -117 0
-42 117 0
-47 -90 0
-47 -93 0
47 90 93 0
90 -91 93 0
-90 -91 -93 0
-90 91 93 0
90 91 -93 0
47 -94 0
-94 -97 0
-47 94 97 0
-47 97 -98 0
47 -97 -98 0
47 97 98 0
-47 -97 98 0
94 -102 0
-101 -102 0
-94 101 102 0
-94 101 -106 0
94 -101 -106 0
94 101 106 0
-94 -101 106 0
102 -110 0
-105 -110 0
-102 105 110 0
-102 105 -114 0
102 -105 -114 0
102 105 114 0
-102 -105 114 0
110 -118 0
-118 -121 0
-110 118 121 0
-110 121 -128 0
110 -121 -128 0
110 121 128 0
-110 -121 128 0
118 -129 0
-123 -129 0
-118 123 129 0
-118 123 -130 0
118 -123 -130 0
118 123 130 0
-118 -123 130 0
129 -131 0
-125 -131 0
125 -129 131 0
125 -129 -132 0
-125 129 -132 0
125 129 132 0
-125 -129 132 0
131 -133 0
-131 133 0
-131 -134 0
131 134 0
133 -135 0
-133 135 0
-133 -136 0
133 136 0
135 -137 0
-135 137 0
-135 -138 0
135 138 0
137 -139 0
-137 139 0
-12 -137 0
12 137 0
-11 139 0
11 -139 0
-10 -139 0
10 139 0
-9 11 0
9 -11 0
-8 -11 0
8 11 0
-7 61 0
-7 90 0
7 -61 -90 0
-61 90 0
61 -90 0
6 -57 -93 0
6 -7 -57 0
6 -7 -93 0
-6 57 93 0
-6 7 57 0
-6 7 93 0
-6 57 0
-6 93 0
-6 7 0
7 57 93 0
5 -52 -97 0
5 -6 -52 0
5 -6 -97 0
-5 52 97 0
-5 6 52 0
-5 6 97 0
5 -52 0
5 -97 0
5 -6 0
-6 -52 -97 0
4 -69 -101 0
4 -5 -69 0
4 -5 -101 0
-4 69 101 0
-4 5 69 0
-4 5 101 0
4 -69 0
4 -101 0
4 -5 0
-5 -69 -101 0
3 -71 -105 0
3 -4 -71 0
3 -4 -105 0
-3 71 105 0
-3 4 71 0
-3 4 105 0
3 -71 0
3 -105 0
3 -4 0
-4 -71 -105 0
2 -35 -121 0
2 -3 -35 0
2 -3 -121 0
-2 35 121 0
-2 3 35 0
-2 3 121 0
2 -35 0
2 -121 0
2 -3 0
-3 -35 -121 0
1 -49 -123 0
1 -2 -49 0
1 -2 -123 0
-1 49 123 0
-1 2 49 0
-1 2 123 0
1 -49 0
1 -123 0
1 -2 0
-2 -49 -123 0
-28 -125 0
-1 -28 0
-1 -125 0
1 28 125 0
